Route #0: 17 16 22 24 27 31 30 33 34 36 35 32 28 25 19 23 26 29 20 21 109
Route #1: 98 68 73 76 77 79 80 78 72 75 74 71 67 69 70
Route #2: 37 38 39 42 41 44 47 46 49 50 51 48 45 43 40 110
Route #3: 100 53 55 56 58 60 63 66 64 62 61 65 59 57 54 52
Route #4: 87 92 89 91 90 114 108 118 18 117 83 113 84 112 85 86 111
Route #5: 88 1 2 3 4 5 8 12 13 14 15 11 10 9 7 6
Route #6: 95 96 93 94 97 115 116 103 104 107 99 101 102 105 106 120 119 81 82
Cost 1071.9485927081
Time 64
